c Generated map
c Size: 8 * 8, weights in range: 1 to 10, walls: True, with ratio 0.05
c dim 8 of 10
c
p sp 64 101
c graph contains 64 nodes and 101 arcs
c
a 1 9 5
a 9 1 5
a 3 11 4
a 11 3 4
a 3 4 2
a 4 3 2
a 4 12 6
a 12 4 6
a 4 5 7
a 5 4 7
a 5 13 10
a 13 5 10
a 5 6 3
a 6 5 3
a 6 14 5
a 14 6 5
a 6 7 2
a 7 6 2
a 7 15 8
a 15 7 8
a 7 8 2
a 8 7 2
a 8 16 2
a 16 8 2
a 9 17 4
a 17 9 4
a 9 10 4
a 10 9 4
a 10 18 3
a 18 10 3
a 10 11 2
a 11 10 2
a 11 19 4
a 19 11 4
a 11 12 6
a 12 11 6
a 12 20 9
a 20 12 9
a 12 13 7
a 13 12 7
a 13 21 8
a 21 13 8
a 13 14 10
a 14 13 10
a 14 22 7
a 22 14 7
a 14 15 6
a 15 14 6
a 15 23 2
a 23 15 2
a 15 16 4
a 16 15 4
a 16 24 3
a 24 16 3
a 17 25 5
a 25 17 5
a 17 18 9
a 18 17 9
a 18 26 5
a 26 18 5
a 18 19 1
a 19 18 1
a 19 27 1
a 27 19 1
a 19 20 8
a 20 19 8
a 20 28 8
a 28 20 8
a 20 21 1
a 21 20 1
a 21 29 2
a 29 21 2
a 21 22 9
a 22 21 9
a 22 30 9
a 30 22 9
a 22 23 1
a 23 22 1
a 23 31 4
a 31 23 4
a 23 24 10
a 24 23 10
a 24 32 6
a 32 24 6
a 25 33 2
a 33 25 2
a 25 26 7
a 26 25 7
a 26 34 2
a 34 26 2
a 26 27 9
a 27 26 9
a 27 35 8
a 35 27 8
a 27 28 8
a 28 27 8
a 28 29 5
a 29 28 5
a 29 37 3
a 37 29 3
a 29 30 4
a 30 29 4
a 30 38 1
a 38 30 1
a 30 31 5
a 31 30 5
a 31 39 3
a 39 31 3
a 31 32 2
a 32 31 2
a 32 40 5
a 40 32 5
a 33 41 1
a 41 33 1
a 33 34 7
a 34 33 7
a 34 42 10
a 42 34 10
a 34 35 1
a 35 34 1
a 35 43 7
a 43 35 7
a 37 45 6
a 45 37 6
a 37 38 3
a 38 37 3
a 38 46 6
a 46 38 6
a 38 39 7
a 39 38 7
a 39 47 5
a 47 39 5
a 39 40 8
a 40 39 8
a 40 48 7
a 48 40 7
a 41 49 7
a 49 41 7
a 41 42 4
a 42 41 4
a 42 50 2
a 50 42 2
a 42 43 5
a 43 42 5
a 43 51 6
a 51 43 6
a 43 44 9
a 44 43 9
a 44 52 10
a 52 44 10
a 44 45 8
a 45 44 8
a 45 53 10
a 53 45 10
a 45 46 2
a 46 45 2
a 46 54 6
a 54 46 6
a 46 47 1
a 47 46 1
a 47 48 4
a 48 47 4
a 48 56 6
a 56 48 6
a 49 57 9
a 57 49 9
a 49 50 7
a 50 49 7
a 50 58 5
a 58 50 5
a 50 51 2
a 51 50 2
a 51 59 6
a 59 51 6
a 51 52 2
a 52 51 2
a 52 60 3
a 60 52 3
a 52 53 2
a 53 52 2
a 53 61 8
a 61 53 8
a 53 54 10
a 54 53 10
a 54 62 5
a 62 54 5
a 56 64 4
a 64 56 4
a 57 58 1
a 58 57 1
a 58 59 3
a 59 58 3
a 59 60 6
a 60 59 6
a 60 61 2
a 61 60 2
a 61 62 1
a 62 61 1
a 62 63 7
a 63 62 7
a 63 64 2
a 64 63 2
